Route #1: 67 62 74 89 88 95 97 98 
Route #2: 10 9 6 2 1 75 
Route #3: 22 25 27 32 33 34 30 28 23 
Route #4: 7 8 11 16 15 13 
Route #5: 63 65 46 45 48 51 50 52 49 47 
Route #6: 59 58 31 35 37 38 39 36 29 24 21 
Route #7: 43 42 44 60 56 53 54 55 72 61 64 66 
Route #8: 100 12 14 19 18 17 26 20 41 40 57 68 69 
Route #9: 91 90 87 86 85 94 92 93 96 99 4 3 5 
Route #10: 80 79 77 73 70 71 76 78 81 82 83 84 
cost 1100.64
